SCIP version 0.82 [precision: 8 byte] [memory: block] [mode: optimized] [LP solver: SOPLEX 1.3.0]
Copyright (c) 2002-2006 Konrad-Zuse-Zentrum fuer Informationstechnik Berlin (ZIB)

reading parameter file <scip.set>

read problem </ufs/psxjm3/instances/random_9.ctt.et.zpl>
============

****************************************************
* Zuse Institute Mathematical Programming Language *
* Release 2.04  Copyright (C)2005 by Thorsten Koch *
****************************************************

original problem has 48324 variables (48220 bin, 104 int, 0 impl, 0 cont) and 12796 constraints

solve problem
=============

LP Solver <SOPLEX 1.3.0>: dual feasibility tolerance cannot be set -- tolerance of SCIP and LP solver may differ
LP Solver <SOPLEX 1.3.0>: barrier convergence tolerance cannot be set -- tolerance of SCIP and LP solver may differ
LP Solver <SOPLEX 1.3.0>: fastmip setting not available -- SCIP parameter has no effect
LP Solver <SOPLEX 1.3.0>: scaling not available -- SCIP parameter has no effect
LP Solver <SOPLEX 1.3.0>: presolving not available -- SCIP parameter has no effect
transformed problem has 48324 variables (48220 bin, 104 int, 0 impl, 0 cont) and 12796 constraints
  12796 constraints of type <linear>

presolving:
(round 1) 6044 del vars, 466 del conss, 6044 chg bounds, 0 chg sides, 0 chg coeffs, 0 upgd conss, 0 impls, 6340 clqs
(round 2) 6044 del vars, 890 del conss, 6044 chg bounds, 0 chg sides, 0 chg coeffs, 0 upgd conss, 0 impls, 6340 clqs
(round 3) 6044 del vars, 3765 del conss, 6044 chg bounds, 2877 chg sides, 0 chg coeffs, 0 upgd conss, 0 impls, 6340 clqs
(round 4) 6044 del vars, 3765 del conss, 6044 chg bounds, 2877 chg sides, 0 chg coeffs, 8473 upgd conss, 0 impls, 6340 clqs
(round 5) 6044 del vars, 3956 del conss, 6044 chg bounds, 2877 chg sides, 35 chg coeffs, 8473 upgd conss, 0 impls, 6340 clqs
   (147.1s) probing: 100/42176 (0.2%) - 0 fixings, 0 aggregations, 0 implications, 0 bound changes
presolving (6 rounds):
 6044 deleted vars, 3956 deleted constraints, 6044 tightened bounds, 0 added holes, 2877 changed sides, 35 changed coefficients
 0 implications, 6340 cliques
presolved problem has 42280 variables (42176 bin, 104 int, 0 impl, 0 cont) and 8840 constraints
   3742 constraints of type <knapsack>
   4073 constraints of type <setppc>
    558 constraints of type <linear>
    467 constraints of type <logicor>
objective value is always integral
Presolving Time: 145.70

 time | node  | left  |LP iter| mem |mdpt |frac |vars |cons |ccons|cols |rows |cuts |confs|strbr|  dualbound   | primalbound  |  gap   
  377s|     1 |     0 | 22315 | 332M|   0 | 931 |  42k|8840 |8840 |  42k|8840 |   0 |   0 |   0 | 1.032600e+04 |      --      |    Inf 
  392s|     1 |     0 | 23261 | 339M|   0 |1008 |  42k|8840 |8840 |  42k|8847 |   7 |   0 |   0 | 1.032600e+04 |      --      |    Inf 
  420s|     1 |     0 | 25176 | 339M|   0 |1010 |  42k|8840 |8840 |  42k|8853 |  13 |   0 |   0 | 1.032600e+04 |      --      |    Inf 
  440s|     1 |     0 | 26481 | 339M|   0 |1019 |  42k|8840 |8840 |  42k|8861 |  21 |   0 |   0 | 1.032600e+04 |      --      |    Inf 
  461s|     1 |     0 | 27842 | 339M|   0 |1004 |  42k|8840 |8840 |  42k|8866 |  26 |   0 |   0 | 1.032600e+04 |      --      |    Inf 
  479s|     1 |     0 | 28815 | 339M|   0 |1030 |  42k|8840 |8840 |  42k|8872 |  32 |   0 |   0 | 1.032600e+04 |      --      |    Inf 
  492s|     1 |     0 | 29509 | 339M|   0 |1026 |  42k|8840 |8840 |  42k|8875 |  35 |   0 |   0 | 1.032600e+04 |      --      |    Inf 
 1473s|     1 |     2 | 39509 | 340M|   0 |1026 |  42k|8840 |8840 |  42k|8875 |  35 |   0 |  59 | 1.032600e+04 |      --      |    Inf 

SCIP Status        : solving was interrupted [time limit reached]
Solving Time (sec) : 7313.38
Solving Nodes      : 80
Primal Bound       : +1.00000000000000e+20 (0 solutions)
Dual Bound         : +1.03260000000000e+04
Gap                : infinite

primal solution:
================

no solution available

Statistics
==========

SCIP Status        : solving was interrupted [time limit reached]
Solving Time       :    7313.38
Original Problem   :
  Problem name     : random_9.ctt.et.zpl
  Variables        : 48324 (48220 binary, 104 integer, 0 implicit integer, 0 continuous)
  Constraints      : 12796 initial, 12796 maximal
Presolved Problem  :
  Problem name     : t_random_9.ctt.et.zpl
  Variables        : 42280 (42176 binary, 104 integer, 0 implicit integer, 0 continuous)
  Constraints      : 8840 initial, 8840 maximal
Presolvers         :       Time  FixedVars   AggrVars   ChgTypes  ChgBounds   AddHoles    DelCons   ChgSides   ChgCoefs
  trivial          :       0.03          0          0          0          0          0          0          0          0
  inttobinary      :       0.00          0          0          0          0          0          0          0          0
  dualfix          :       0.02          0          0          0          0          0          0          0          0
  implics          :       0.04          0          0          0          0          0          0          0          0
  probing          :       8.21          0          0          0          0          0          0          0          0
  knapsack         :      99.38          0          0          0          0          0          0          0         35
  setppc           :       2.72          0          0          0          0          0        191          0          0
  linear           :      34.38       6044          0          0       6044          0       3765       2877          0
  logicor          :       0.01          0          0          0          0          0          0          0          0
  root node        :          -          0          -          -          0          -          -          -          -
Constraints        :     Number  #Separate #Propagate    #EnfoLP    #EnfoPS    Cutoffs    DomReds       Cuts      Conss   Children
  integral         :          0          0          0         80          0          0          0          0          0        160
  knapsack         :       3742          6        341          0          0          0          0          0          0          0
  setppc           :       4073          6        341          0          0          0       9122          0          0          0
  linear           :        558          6        230          0          0          0        926          0          0          0
  logicor          :        467          6         44          0          0          0          7          0          0          0
Constraint Timings :  TotalTime   Separate  Propagate     EnfoLP     EnfoPS
  integral         :    3963.03       0.00       0.00    3963.03       0.00
  knapsack         :       3.12       2.81       0.31       0.00       0.00
  setppc           :       0.32       0.00       0.32       0.00       0.00
  linear           :       6.62       1.26       5.36       0.00       0.00
  logicor          :       0.01       0.00       0.01       0.00       0.00
Propagators        :       Time      Calls    Cutoffs    DomReds
  rootredcost      :       0.00          0          0          0
  pseudoobj        :       0.00        141          0          0
Conflict Analysis  :       Time      Calls    Success  Conflicts   Literals    Reconvs ReconvLits   LP Iters
  propagation      :       0.00          0          0          0        0.0          0        0.0          -
  infeasible LP    :       0.00          0          0          0        0.0          0        0.0          0
  bound exceed. LP :       0.00          0          0          0        0.0          0        0.0          0
  strong branching :       0.00          0          0          0        0.0          0        0.0          0
  pseudo solution  :       0.00          0          0          0        0.0          0        0.0          -
  applied globally :          -          -          -          0        0.0          -          -          -
  applied locally  :          -          -          -          0        0.0          -          -          -
Separators         :       Time      Calls    Cutoffs    DomReds       Cuts      Conss
  cut pool         :       0.00          5          -          -          0          -    (maximal pool size: 35)
  redcost          :       0.99         85          0          0          0          0
  impliedbounds    :       0.05          6          0          0          0          0
  intobj           :       0.00          0          0          0          0          0
  gomory           :       4.38          6          0          0          0          0
  strongcg         :       4.94          6          0          0          0          0
  cmir             :       9.82          6          0          0          0          0
  clique           :       0.78          6          0          0         35          0
Pricers            :       Time      Calls       Vars
  problem variables:       0.00          0          0
Branching Rules    :       Time      Calls    Cutoffs    DomReds       Cuts      Conss   Children
  relpscost        :    3963.03         80          0          0          0          0        160
  pscost           :       0.00          0          0          0          0          0          0
  inference        :       0.00          0          0          0          0          0          0
  mostinf          :       0.00          0          0          0          0          0          0
  leastinf         :       0.00          0          0          0          0          0          0
  fullstrong       :       0.00          0          0          0          0          0          0
  allfullstrong    :       0.00          0          0          0          0          0          0
Primal Heuristics  :       Time      Calls      Found
  LP solutions     :       0.00          -          0
  pseudo solutions :       0.00          -          0
  coefdiving       :       0.00          0          0
  pscostdiving     :       0.00          0          0
  fracdiving       :       0.00          0          0
  objpscostdiving  :       0.00          0          0
  rootsoldiving    :       0.00          0          0
  linesearchdiving :       0.00          0          0
  guideddiving     :       0.00          0          0
  crossover        :       0.00          0          0
  feaspump         :     145.50          1          0
  simplerounding   :       0.95         86          0
  rounding         :       2.60         86          0
  shifting         :       2.21         14          0
  fixandinfer      :       0.00          0          0
  intdiving        :       0.00          0          0
  octane           :       0.00          0          0
  rins             :       0.00          0          0
  localbranching   :       0.00          0          0
LP                 :       Time      Calls Iterations  Iter/call   Iter/sec
  primal LP        :       0.06          0          0       0.00       0.00
  dual LP          :    3021.63         86     232439    2702.78      76.93
  barrier LP       :       0.00          0          0       0.00          -
  diving/probing LP:     145.44          1      10000   10000.00      68.76
  strong branching :    3962.98        294     289929     986.15      73.16
    (at root node) :          -         59      58501     991.54          -
  conflict analysis:       0.00          0          0       0.00          -
B&B Tree           :
  number of runs   :          1
  nodes            :         80
  nodes (total)    :         80
  nodes left       :         81
  max depth        :         79
  max depth (total):         79
  backtracks       :          0 (0.0%)
  delayed cutoffs  :          0
  repropagations   :          0 (0 domain reductions, 0 cutoffs)
  avg switch length:       1.00
  switching time   :       0.23
Solution           :
  Solutions found  :          0 (0 improvements)
  Primal Bound     :          -
  Dual Bound       : +1.03260000000000e+04
  Gap              :   infinite
  Root Dual Bound  : +1.03260000000000e+04
